NAME : LPS-n13-m385
COMMENT : (Lartu-Peter-Santi Plot, instance 4385 out of 39200. 13 customers.)
TYPE : CVRP
DIMENSION : 13
EDGE_WEIGHT_TYPE : EUC_2D
CAPACITY : 97
NODE_COORD_SECTION
 1 22 7
 2 82 72
 3 1 89
 4 81 9
 5 95 40
 6 61 2
 7 45 86
 8 63 51
 9 1 93
 10 33 66
 11 23 76
 12 71 67
 13 62 5
DEMAND_SECTION
1 0
2 90
3 53
4 13
5 60
6 94
7 83
8 23
9 24
10 6
11 59
12 1
13 48
DEPOT_SECTION
 1
 -1
EOF
